data/lp_files/pEFS/59_9.lp
\ Model foo
\ LP format - for model browsing. Use MPS format to capture full model detail.
Minimize
  z
Subject To
 allocateEach[1]: x[1,1] + x[2,1] + x[3,1] = 1
 allocateEach[2]: x[1,2] + x[2,2] + x[3,2] = 1
 allocateEach[3]: x[1,3] + x[2,3] + x[3,3] = 1
 allocateEach[4]: x[1,4] + x[2,4] + x[3,4] = 1
 allocateEach[5]: x[1,5] + x[2,5] + x[3,5] = 1
 allocateEach[6]: x[1,6] + x[2,6] + x[3,6] = 1
 allocateEach[7]: x[1,7] + x[2,7] + x[3,7] = 1
 allocateEach[8]: x[1,8] + x[2,8] + x[3,8] = 1
 allocateEach[9]: x[1,9] + x[2,9] + x[3,9] = 1
 allocateEach[10]: x[1,10] + x[2,10] + x[3,10] = 1
 allocateEach[11]: x[1,11] + x[2,11] + x[3,11] = 1
 allocateEach[12]: x[1,12] + x[2,12] + x[3,12] = 1
 allocateEach[13]: x[1,13] + x[2,13] + x[3,13] = 1
 allocateEach[14]: x[1,14] + x[2,14] + x[3,14] = 1
 allocateEach[15]: x[1,15] + x[2,15] + x[3,15] = 1
 allocateEach[16]: x[1,16] + x[2,16] + x[3,16] = 1
 allocateEach[17]: x[1,17] + x[2,17] + x[3,17] = 1
 allocateEach[18]: x[1,18] + x[2,18] + x[3,18] = 1
 allocateEach[19]: x[1,19] + x[2,19] + x[3,19] = 1
 allocateAllCash: cashProportion[1] + cashProportion[2] + cashProportion[3]
   = 1
 findWorstP[1,2]: z + 0.0869776989179974 cashProportion[1]
   - 0.0869776989179974 cashProportion[2] + 0.0818808057614028 x[1,1]
   + 0.0845858121977525 x[1,2] + 0.0219096823574436 x[1,3]
   + 0.0569877883310719 x[1,4] + 0.0154472393278363 x[1,5]
   + 0.0790801238562433 x[1,6] + 0.0625282677521484 x[1,7]
   + 0.0693125282677522 x[1,8] + 0.00144382980203876 x[1,9]
   + 0.068494937897923 x[1,10] + 0.00425320947709007 x[1,11]
   + 0.0781494624778207 x[1,12] + 1.8265316772779461e-04 x[1,13]
   + 0.0297637685697387 x[1,14] + 0.0569269039418293 x[1,15]
   + 0.0263281494624778 x[1,16] + 0.0230056013638103 x[1,17]
   + 0.0820808544689142 x[1,18] + 0.0706606826009811 x[1,19]
   - 0.0818808057614028 x[2,1] - 0.0845858121977525 x[2,2]
   - 0.0219096823574436 x[2,3] - 0.0569877883310719 x[2,4]
   - 0.0154472393278363 x[2,5] - 0.0790801238562433 x[2,6]
   - 0.0625282677521484 x[2,7] - 0.0693125282677522 x[2,8]
   - 0.00144382980203876 x[2,9] - 0.068494937897923 x[2,10]
   - 0.00425320947709007 x[2,11] - 0.0781494624778207 x[2,12]
   - 1.8265316772779461e-04 x[2,13] - 0.0297637685697387 x[2,14]
   - 0.0569269039418293 x[2,15] - 0.0263281494624778 x[2,16]
   - 0.0230056013638103 x[2,17] - 0.0820808544689142 x[2,18]
   - 0.0706606826009811 x[2,19] >= 0
 findWorstP[1,3]: z + 0.0869776989179974 cashProportion[1]
   - 0.0869776989179974 cashProportion[3] + 0.0818808057614028 x[1,1]
   + 0.0845858121977525 x[1,2] + 0.0219096823574436 x[1,3]
   + 0.0569877883310719 x[1,4] + 0.0154472393278363 x[1,5]
   + 0.0790801238562433 x[1,6] + 0.0625282677521484 x[1,7]
   + 0.0693125282677522 x[1,8] + 0.00144382980203876 x[1,9]
   + 0.068494937897923 x[1,10] + 0.00425320947709007 x[1,11]
   + 0.0781494624778207 x[1,12] + 1.8265316772779461e-04 x[1,13]
   + 0.0297637685697387 x[1,14] + 0.0569269039418293 x[1,15]
   + 0.0263281494624778 x[1,16] + 0.0230056013638103 x[1,17]
   + 0.0820808544689142 x[1,18] + 0.0706606826009811 x[1,19]
   - 0.0818808057614028 x[3,1] - 0.0845858121977525 x[3,2]
   - 0.0219096823574436 x[3,3] - 0.0569877883310719 x[3,4]
   - 0.0154472393278363 x[3,5] - 0.0790801238562433 x[3,6]
   - 0.0625282677521484 x[3,7] - 0.0693125282677522 x[3,8]
   - 0.00144382980203876 x[3,9] - 0.068494937897923 x[3,10]
   - 0.00425320947709007 x[3,11] - 0.0781494624778207 x[3,12]
   - 1.8265316772779461e-04 x[3,13] - 0.0297637685697387 x[3,14]
   - 0.0569269039418293 x[3,15] - 0.0263281494624778 x[3,16]
   - 0.0230056013638103 x[3,17] - 0.0820808544689142 x[3,18]
   - 0.0706606826009811 x[3,19] >= 0
 findWorstP[2,1]: z - 0.1233684522193985 cashProportion[1]
   + 0.1233684522193985 cashProportion[2] - 0.00581065409953367 x[1,1]
   - 0.00357768511436256 x[1,2] - 0.0996200251671642 x[1,3]
   - 0.1153124922894717 x[1,4] - 0.0448074218460855 x[1,5]
   - 0.0588344148634311 x[1,6] - 0.0771422931727898 x[1,7]
   - 0.0171728885489403 x[1,8] - 0.0911569493449135 x[1,9]
   - 0.0123491820671618 x[1,10] - 0.028090996570357 x[1,11]
   - 0.00747612820449555 x[1,12] - 0.0216388265192825 x[1,13]
   - 0.0805719361444891 x[1,14] - 0.0439068321448839 x[1,15]
   - 0.0169384884897234 x[1,16] - 0.052493276419354 x[1,17]
   - 0.0766241456734684 x[1,18] - 0.0231069111006933 x[1,19]
   + 0.00581065409953367 x[2,1] + 0.00357768511436256 x[2,2]
   + 0.0996200251671642 x[2,3] + 0.1153124922894717 x[2,4]
   + 0.0448074218460855 x[2,5] + 0.0588344148634311 x[2,6]
   + 0.0771422931727898 x[2,7] + 0.0171728885489403 x[2,8]
   + 0.0911569493449135 x[2,9] + 0.0123491820671618 x[2,10]
   + 0.028090996570357 x[2,11] + 0.00747612820449555 x[2,12]
   + 0.0216388265192825 x[2,13] + 0.0805719361444891 x[2,14]
   + 0.0439068321448839 x[2,15] + 0.0169384884897234 x[2,16]
   + 0.052493276419354 x[2,17] + 0.0766241456734684 x[2,18]
   + 0.0231069111006933 x[2,19] >= 0
 findWorstP[2,3]: z + 0.1233684522193985 cashProportion[2]
   - 0.1233684522193985 cashProportion[3] + 0.00581065409953367 x[2,1]
   + 0.00357768511436256 x[2,2] + 0.0996200251671642 x[2,3]
   + 0.1153124922894717 x[2,4] + 0.0448074218460855 x[2,5]
   + 0.0588344148634311 x[2,6] + 0.0771422931727898 x[2,7]
   + 0.0171728885489403 x[2,8] + 0.0911569493449135 x[2,9]
   + 0.0123491820671618 x[2,10] + 0.028090996570357 x[2,11]
   + 0.00747612820449555 x[2,12] + 0.0216388265192825 x[2,13]
   + 0.0805719361444891 x[2,14] + 0.0439068321448839 x[2,15]
   + 0.0169384884897234 x[2,16] + 0.052493276419354 x[2,17]
   + 0.0766241456734684 x[2,18] + 0.0231069111006933 x[2,19]
   - 0.00581065409953367 x[3,1] - 0.00357768511436256 x[3,2]
   - 0.0996200251671642 x[3,3] - 0.1153124922894717 x[3,4]
   - 0.0448074218460855 x[3,5] - 0.0588344148634311 x[3,6]
   - 0.0771422931727898 x[3,7] - 0.0171728885489403 x[3,8]
   - 0.0911569493449135 x[3,9] - 0.0123491820671618 x[3,10]
   - 0.028090996570357 x[3,11] - 0.00747612820449555 x[3,12]
   - 0.0216388265192825 x[3,13] - 0.0805719361444891 x[3,14]
   - 0.0439068321448839 x[3,15] - 0.0169384884897234 x[3,16]
   - 0.052493276419354 x[3,17] - 0.0766241456734684 x[3,18]
   - 0.0231069111006933 x[3,19] >= 0
 findWorstP[3,1]: z - 0.0701247519336901 cashProportion[1]
   + 0.0701247519336901 cashProportion[3] - 0.0284425993843047 x[1,1]
   - 0.0196279180662398 x[1,2] - 0.00456512135088322 x[1,3]
   - 0.0565205500585542 x[1,4] - 0.0497605239721465 x[1,5]
   - 0.0575513839119794 x[1,6] - 0.0459457374669537 x[1,7]
   - 0.0527829007804885 x[1,8] - 0.0581053694522556 x[1,9]
   - 0.0375377797101043 x[1,10] - 0.0404619818657391 x[1,11]
   - 0.0617027692264539 x[1,12] - 0.0669340757207071 x[1,13]
   - 0.0655526181076135 x[1,14] - 0.0669340757207071 x[1,15]
   - 0.0667237014649061 x[1,16] - 0.0386177008898831 x[1,17]
   - 0.0650757697944644 x[1,18] - 0.0470326711219259 x[1,19]
   + 0.0284425993843047 x[3,1] + 0.0196279180662398 x[3,2]
   + 0.00456512135088322 x[3,3] + 0.0565205500585542 x[3,4]
   + 0.0497605239721465 x[3,5] + 0.0575513839119794 x[3,6]
   + 0.0459457374669537 x[3,7] + 0.0527829007804885 x[3,8]
   + 0.0581053694522556 x[3,9] + 0.0375377797101043 x[3,10]
   + 0.0404619818657391 x[3,11] + 0.0617027692264539 x[3,12]
   + 0.0669340757207071 x[3,13] + 0.0655526181076135 x[3,14]
   + 0.0669340757207071 x[3,15] + 0.0667237014649061 x[3,16]
   + 0.0386177008898831 x[3,17] + 0.0650757697944644 x[3,18]
   + 0.0470326711219259 x[3,19] >= 0
 findWorstP[3,2]: z - 0.0701247519336901 cashProportion[2]
   + 0.0701247519336901 cashProportion[3] - 0.0284425993843047 x[2,1]
   - 0.0196279180662398 x[2,2] - 0.00456512135088322 x[2,3]
   - 0.0565205500585542 x[2,4] - 0.0497605239721465 x[2,5]
   - 0.0575513839119794 x[2,6] - 0.0459457374669537 x[2,7]
   - 0.0527829007804885 x[2,8] - 0.0581053694522556 x[2,9]
   - 0.0375377797101043 x[2,10] - 0.0404619818657391 x[2,11]
   - 0.0617027692264539 x[2,12] - 0.0669340757207071 x[2,13]
   - 0.0655526181076135 x[2,14] - 0.0669340757207071 x[2,15]
   - 0.0667237014649061 x[2,16] - 0.0386177008898831 x[2,17]
   - 0.0650757697944644 x[2,18] - 0.0470326711219259 x[2,19]
   + 0.0284425993843047 x[3,1] + 0.0196279180662398 x[3,2]
   + 0.00456512135088322 x[3,3] + 0.0565205500585542 x[3,4]
   + 0.0497605239721465 x[3,5] + 0.0575513839119794 x[3,6]
   + 0.0459457374669537 x[3,7] + 0.0527829007804885 x[3,8]
   + 0.0581053694522556 x[3,9] + 0.0375377797101043 x[3,10]
   + 0.0404619818657391 x[3,11] + 0.0617027692264539 x[3,12]
   + 0.0669340757207071 x[3,13] + 0.0655526181076135 x[3,14]
   + 0.0669340757207071 x[3,15] + 0.0667237014649061 x[3,16]
   + 0.0386177008898831 x[3,17] + 0.0650757697944644 x[3,18]
   + 0.0470326711219259 x[3,19] >= 0
Bounds
 z <= 1
 -infinity <= cashProportion[1] <= 1
 -infinity <= cashProportion[2] <= 1
 -infinity <= cashProportion[3] <= 1
Binaries
 x[1,1] x[1,2] x[1,3] x[1,4] x[1,5] x[1,6] x[1,7] x[1,8] x[1,9] x[1,10]
 x[1,11] x[1,12] x[1,13] x[1,14] x[1,15] x[1,16] x[1,17] x[1,18] x[1,19]
 x[2,1] x[2,2] x[2,3] x[2,4] x[2,5] x[2,6] x[2,7] x[2,8] x[2,9] x[2,10]
 x[2,11] x[2,12] x[2,13] x[2,14] x[2,15] x[2,16] x[2,17] x[2,18] x[2,19]
 x[3,1] x[3,2] x[3,3] x[3,4] x[3,5] x[3,6] x[3,7] x[3,8] x[3,9] x[3,10]
 x[3,11] x[3,12] x[3,13] x[3,14] x[3,15] x[3,16] x[3,17] x[3,18] x[3,19]
End
