data/mps_files/pEFS/59_9.mps
NAME foo
ROWS
 N  OBJ
 E  allocateEach[1]
 E  allocateEach[2]
 E  allocateEach[3]
 E  allocateEach[4]
 E  allocateEach[5]
 E  allocateEach[6]
 E  allocateEach[7]
 E  allocateEach[8]
 E  allocateEach[9]
 E  allocateEach[10]
 E  allocateEach[11]
 E  allocateEach[12]
 E  allocateEach[13]
 E  allocateEach[14]
 E  allocateEach[15]
 E  allocateEach[16]
 E  allocateEach[17]
 E  allocateEach[18]
 E  allocateEach[19]
 E  allocateAllCash
 G  findWorstP[1,2]
 G  findWorstP[1,3]
 G  findWorstP[2,1]
 G  findWorstP[2,3]
 G  findWorstP[3,1]
 G  findWorstP[3,2]
COLUMNS
    z         OBJ       1
    z         findWorstP[1,2]  1
    z         findWorstP[1,3]  1
    z         findWorstP[2,1]  1
    z         findWorstP[2,3]  1
    z         findWorstP[3,1]  1
    z         findWorstP[3,2]  1
    cashProportion[1]  allocateAllCash  1
    cashProportion[1]  findWorstP[1,2]  8.6977698917997448e-02
    cashProportion[1]  findWorstP[1,3]  8.6977698917997448e-02
    cashProportion[1]  findWorstP[2,1]  -1.2336845221939848e-01
    cashProportion[1]  findWorstP[3,1]  -7.0124751933690055e-02
    cashProportion[2]  allocateAllCash  1
    cashProportion[2]  findWorstP[1,2]  -8.6977698917997448e-02
    cashProportion[2]  findWorstP[2,1]  1.2336845221939848e-01
    cashProportion[2]  findWorstP[2,3]  1.2336845221939848e-01
    cashProportion[2]  findWorstP[3,2]  -7.0124751933690055e-02
    cashProportion[3]  allocateAllCash  1
    cashProportion[3]  findWorstP[1,3]  -8.6977698917997448e-02
    cashProportion[3]  findWorstP[2,3]  -1.2336845221939848e-01
    cashProportion[3]  findWorstP[3,1]  7.0124751933690055e-02
    cashProportion[3]  findWorstP[3,2]  7.0124751933690055e-02
    MARKER    'MARKER'                 'INTORG'
    x[1,1]    allocateEach[1]  1
    x[1,1]    findWorstP[1,2]  8.1880805761402789e-02
    x[1,1]    findWorstP[1,3]  8.1880805761402789e-02
    x[1,1]    findWorstP[2,1]  -5.8106540995336671e-03
    x[1,1]    findWorstP[3,1]  -2.8442599384304681e-02
    x[1,2]    allocateEach[2]  1
    x[1,2]    findWorstP[1,2]  0.0845858121977525
    x[1,2]    findWorstP[1,3]  0.0845858121977525
    x[1,2]    findWorstP[2,1]  -3.5776851143625552e-03
    x[1,2]    findWorstP[3,1]  -1.9627918066239841e-02
    x[1,3]    allocateEach[3]  1
    x[1,3]    findWorstP[1,2]  2.1909682357443554e-02
    x[1,3]    findWorstP[1,3]  2.1909682357443554e-02
    x[1,3]    findWorstP[2,1]  -9.9620025167164242e-02
    x[1,3]    findWorstP[3,1]  -4.5651213508832219e-03
    x[1,4]    allocateEach[4]  1
    x[1,4]    findWorstP[1,2]  5.6987788331071917e-02
    x[1,4]    findWorstP[1,3]  5.6987788331071917e-02
    x[1,4]    findWorstP[2,1]  -1.1531249228947173e-01
    x[1,4]    findWorstP[3,1]  -5.6520550058554178e-02
    x[1,5]    allocateEach[5]  1
    x[1,5]    findWorstP[1,2]  1.5447239327836345e-02
    x[1,5]    findWorstP[1,3]  1.5447239327836345e-02
    x[1,5]    findWorstP[2,1]  -4.4807421846085521e-02
    x[1,5]    findWorstP[3,1]  -4.9760523972146455e-02
    x[1,6]    allocateEach[6]  1
    x[1,6]    findWorstP[1,2]  7.9080123856243273e-02
    x[1,6]    findWorstP[1,3]  7.9080123856243273e-02
    x[1,6]    findWorstP[2,1]  -5.8834414863431120e-02
    x[1,6]    findWorstP[3,1]  -5.7551383911979413e-02
    x[1,7]    allocateEach[7]  1
    x[1,7]    findWorstP[1,2]  6.2528267752148356e-02
    x[1,7]    findWorstP[1,3]  6.2528267752148356e-02
    x[1,7]    findWorstP[2,1]  -7.7142293172789839e-02
    x[1,7]    findWorstP[3,1]  -4.5945737466953712e-02
    x[1,8]    allocateEach[8]  1
    x[1,8]    findWorstP[1,2]  6.9312528267752166e-02
    x[1,8]    findWorstP[1,3]  6.9312528267752166e-02
    x[1,8]    findWorstP[2,1]  -1.7172888548940262e-02
    x[1,8]    findWorstP[3,1]  -5.2782900780488494e-02
    x[1,9]    allocateEach[9]  1
    x[1,9]    findWorstP[1,2]  1.4438298020387574e-03
    x[1,9]    findWorstP[1,3]  1.4438298020387574e-03
    x[1,9]    findWorstP[2,1]  -9.1156949344913515e-02
    x[1,9]    findWorstP[3,1]  -5.8105369452255570e-02
    x[1,10]   allocateEach[10]  1
    x[1,10]   findWorstP[1,2]  6.8494937897922978e-02
    x[1,10]   findWorstP[1,3]  6.8494937897922978e-02
    x[1,10]   findWorstP[2,1]  -1.2349182067161783e-02
    x[1,10]   findWorstP[3,1]  -3.7537779710104281e-02
    x[1,11]   allocateEach[11]  1
    x[1,11]   findWorstP[1,2]  4.2532094770900740e-03
    x[1,11]   findWorstP[1,3]  4.2532094770900740e-03
    x[1,11]   findWorstP[2,1]  -2.8090996570357029e-02
    x[1,11]   findWorstP[3,1]  -4.0461981865739148e-02
    x[1,12]   allocateEach[12]  1
    x[1,12]   findWorstP[1,2]  7.8149462477820689e-02
    x[1,12]   findWorstP[1,3]  7.8149462477820689e-02
    x[1,12]   findWorstP[2,1]  -7.4761282044955458e-03
    x[1,12]   findWorstP[3,1]  -6.1702769226453867e-02
    x[1,13]   allocateEach[13]  1
    x[1,13]   findWorstP[1,2]  1.8265316772779461e-04
    x[1,13]   findWorstP[1,3]  1.8265316772779461e-04
    x[1,13]   findWorstP[2,1]  -2.1638826519282488e-02
    x[1,13]   findWorstP[3,1]  -6.6934075720707142e-02
    x[1,14]   allocateEach[14]  1
    x[1,14]   findWorstP[1,2]  2.9763768569738721e-02
    x[1,14]   findWorstP[1,3]  2.9763768569738721e-02
    x[1,14]   findWorstP[2,1]  -8.0571936144489126e-02
    x[1,14]   findWorstP[3,1]  -6.5552618107613453e-02
    x[1,15]   allocateEach[15]  1
    x[1,15]   findWorstP[1,2]  5.6926903941829317e-02
    x[1,15]   findWorstP[1,3]  5.6926903941829317e-02
    x[1,15]   findWorstP[2,1]  -0.0439068321448839
    x[1,15]   findWorstP[3,1]  -6.6934075720707142e-02
    x[1,16]   allocateEach[16]  1
    x[1,16]   findWorstP[1,2]  2.6328149462477825e-02
    x[1,16]   findWorstP[1,3]  2.6328149462477825e-02
    x[1,16]   findWorstP[2,1]  -1.6938488489723409e-02
    x[1,16]   findWorstP[3,1]  -6.6723701464906068e-02
    x[1,17]   allocateEach[17]  1
    x[1,17]   findWorstP[1,2]  2.3005601363810323e-02
    x[1,17]   findWorstP[1,3]  2.3005601363810323e-02
    x[1,17]   findWorstP[2,1]  -5.2493276419354036e-02
    x[1,17]   findWorstP[3,1]  -0.0386177008898831
    x[1,18]   allocateEach[18]  1
    x[1,18]   findWorstP[1,2]  8.2080854468914180e-02
    x[1,18]   findWorstP[1,3]  8.2080854468914180e-02
    x[1,18]   findWorstP[2,1]  -7.6624145673468369e-02
    x[1,18]   findWorstP[3,1]  -6.5075769794464361e-02
    x[1,19]   allocateEach[19]  1
    x[1,19]   findWorstP[1,2]  7.0660682600981115e-02
    x[1,19]   findWorstP[1,3]  7.0660682600981115e-02
    x[1,19]   findWorstP[2,1]  -2.3106911100693329e-02
    x[1,19]   findWorstP[3,1]  -4.7032671121925905e-02
    x[2,1]    allocateEach[1]  1
    x[2,1]    findWorstP[1,2]  -8.1880805761402789e-02
    x[2,1]    findWorstP[2,1]  5.8106540995336671e-03
    x[2,1]    findWorstP[2,3]  5.8106540995336671e-03
    x[2,1]    findWorstP[3,2]  -2.8442599384304681e-02
    x[2,2]    allocateEach[2]  1
    x[2,2]    findWorstP[1,2]  -0.0845858121977525
    x[2,2]    findWorstP[2,1]  3.5776851143625552e-03
    x[2,2]    findWorstP[2,3]  3.5776851143625552e-03
    x[2,2]    findWorstP[3,2]  -1.9627918066239841e-02
    x[2,3]    allocateEach[3]  1
    x[2,3]    findWorstP[1,2]  -2.1909682357443554e-02
    x[2,3]    findWorstP[2,1]  9.9620025167164242e-02
    x[2,3]    findWorstP[2,3]  9.9620025167164242e-02
    x[2,3]    findWorstP[3,2]  -4.5651213508832219e-03
    x[2,4]    allocateEach[4]  1
    x[2,4]    findWorstP[1,2]  -5.6987788331071917e-02
    x[2,4]    findWorstP[2,1]  1.1531249228947173e-01
    x[2,4]    findWorstP[2,3]  1.1531249228947173e-01
    x[2,4]    findWorstP[3,2]  -5.6520550058554178e-02
    x[2,5]    allocateEach[5]  1
    x[2,5]    findWorstP[1,2]  -1.5447239327836345e-02
    x[2,5]    findWorstP[2,1]  4.4807421846085521e-02
    x[2,5]    findWorstP[2,3]  4.4807421846085521e-02
    x[2,5]    findWorstP[3,2]  -4.9760523972146455e-02
    x[2,6]    allocateEach[6]  1
    x[2,6]    findWorstP[1,2]  -7.9080123856243273e-02
    x[2,6]    findWorstP[2,1]  5.8834414863431120e-02
    x[2,6]    findWorstP[2,3]  5.8834414863431120e-02
    x[2,6]    findWorstP[3,2]  -5.7551383911979413e-02
    x[2,7]    allocateEach[7]  1
    x[2,7]    findWorstP[1,2]  -6.2528267752148356e-02
    x[2,7]    findWorstP[2,1]  7.7142293172789839e-02
    x[2,7]    findWorstP[2,3]  7.7142293172789839e-02
    x[2,7]    findWorstP[3,2]  -4.5945737466953712e-02
    x[2,8]    allocateEach[8]  1
    x[2,8]    findWorstP[1,2]  -6.9312528267752166e-02
    x[2,8]    findWorstP[2,1]  1.7172888548940262e-02
    x[2,8]    findWorstP[2,3]  1.7172888548940262e-02
    x[2,8]    findWorstP[3,2]  -5.2782900780488494e-02
    x[2,9]    allocateEach[9]  1
    x[2,9]    findWorstP[1,2]  -1.4438298020387574e-03
    x[2,9]    findWorstP[2,1]  9.1156949344913515e-02
    x[2,9]    findWorstP[2,3]  9.1156949344913515e-02
    x[2,9]    findWorstP[3,2]  -5.8105369452255570e-02
    x[2,10]   allocateEach[10]  1
    x[2,10]   findWorstP[1,2]  -6.8494937897922978e-02
    x[2,10]   findWorstP[2,1]  1.2349182067161783e-02
    x[2,10]   findWorstP[2,3]  1.2349182067161783e-02
    x[2,10]   findWorstP[3,2]  -3.7537779710104281e-02
    x[2,11]   allocateEach[11]  1
    x[2,11]   findWorstP[1,2]  -4.2532094770900740e-03
    x[2,11]   findWorstP[2,1]  2.8090996570357029e-02
    x[2,11]   findWorstP[2,3]  2.8090996570357029e-02
    x[2,11]   findWorstP[3,2]  -4.0461981865739148e-02
    x[2,12]   allocateEach[12]  1
    x[2,12]   findWorstP[1,2]  -7.8149462477820689e-02
    x[2,12]   findWorstP[2,1]  7.4761282044955458e-03
    x[2,12]   findWorstP[2,3]  7.4761282044955458e-03
    x[2,12]   findWorstP[3,2]  -6.1702769226453867e-02
    x[2,13]   allocateEach[13]  1
    x[2,13]   findWorstP[1,2]  -1.8265316772779461e-04
    x[2,13]   findWorstP[2,1]  2.1638826519282488e-02
    x[2,13]   findWorstP[2,3]  2.1638826519282488e-02
    x[2,13]   findWorstP[3,2]  -6.6934075720707142e-02
    x[2,14]   allocateEach[14]  1
    x[2,14]   findWorstP[1,2]  -2.9763768569738721e-02
    x[2,14]   findWorstP[2,1]  8.0571936144489126e-02
    x[2,14]   findWorstP[2,3]  8.0571936144489126e-02
    x[2,14]   findWorstP[3,2]  -6.5552618107613453e-02
    x[2,15]   allocateEach[15]  1
    x[2,15]   findWorstP[1,2]  -5.6926903941829317e-02
    x[2,15]   findWorstP[2,1]  0.0439068321448839
    x[2,15]   findWorstP[2,3]  0.0439068321448839
    x[2,15]   findWorstP[3,2]  -6.6934075720707142e-02
    x[2,16]   allocateEach[16]  1
    x[2,16]   findWorstP[1,2]  -2.6328149462477825e-02
    x[2,16]   findWorstP[2,1]  1.6938488489723409e-02
    x[2,16]   findWorstP[2,3]  1.6938488489723409e-02
    x[2,16]   findWorstP[3,2]  -6.6723701464906068e-02
    x[2,17]   allocateEach[17]  1
    x[2,17]   findWorstP[1,2]  -2.3005601363810323e-02
    x[2,17]   findWorstP[2,1]  5.2493276419354036e-02
    x[2,17]   findWorstP[2,3]  5.2493276419354036e-02
    x[2,17]   findWorstP[3,2]  -0.0386177008898831
    x[2,18]   allocateEach[18]  1
    x[2,18]   findWorstP[1,2]  -8.2080854468914180e-02
    x[2,18]   findWorstP[2,1]  7.6624145673468369e-02
    x[2,18]   findWorstP[2,3]  7.6624145673468369e-02
    x[2,18]   findWorstP[3,2]  -6.5075769794464361e-02
    x[2,19]   allocateEach[19]  1
    x[2,19]   findWorstP[1,2]  -7.0660682600981115e-02
    x[2,19]   findWorstP[2,1]  2.3106911100693329e-02
    x[2,19]   findWorstP[2,3]  2.3106911100693329e-02
    x[2,19]   findWorstP[3,2]  -4.7032671121925905e-02
    x[3,1]    allocateEach[1]  1
    x[3,1]    findWorstP[1,3]  -8.1880805761402789e-02
    x[3,1]    findWorstP[2,3]  -5.8106540995336671e-03
    x[3,1]    findWorstP[3,1]  2.8442599384304681e-02
    x[3,1]    findWorstP[3,2]  2.8442599384304681e-02
    x[3,2]    allocateEach[2]  1
    x[3,2]    findWorstP[1,3]  -0.0845858121977525
    x[3,2]    findWorstP[2,3]  -3.5776851143625552e-03
    x[3,2]    findWorstP[3,1]  1.9627918066239841e-02
    x[3,2]    findWorstP[3,2]  1.9627918066239841e-02
    x[3,3]    allocateEach[3]  1
    x[3,3]    findWorstP[1,3]  -2.1909682357443554e-02
    x[3,3]    findWorstP[2,3]  -9.9620025167164242e-02
    x[3,3]    findWorstP[3,1]  4.5651213508832219e-03
    x[3,3]    findWorstP[3,2]  4.5651213508832219e-03
    x[3,4]    allocateEach[4]  1
    x[3,4]    findWorstP[1,3]  -5.6987788331071917e-02
    x[3,4]    findWorstP[2,3]  -1.1531249228947173e-01
    x[3,4]    findWorstP[3,1]  5.6520550058554178e-02
    x[3,4]    findWorstP[3,2]  5.6520550058554178e-02
    x[3,5]    allocateEach[5]  1
    x[3,5]    findWorstP[1,3]  -1.5447239327836345e-02
    x[3,5]    findWorstP[2,3]  -4.4807421846085521e-02
    x[3,5]    findWorstP[3,1]  4.9760523972146455e-02
    x[3,5]    findWorstP[3,2]  4.9760523972146455e-02
    x[3,6]    allocateEach[6]  1
    x[3,6]    findWorstP[1,3]  -7.9080123856243273e-02
    x[3,6]    findWorstP[2,3]  -5.8834414863431120e-02
    x[3,6]    findWorstP[3,1]  5.7551383911979413e-02
    x[3,6]    findWorstP[3,2]  5.7551383911979413e-02
    x[3,7]    allocateEach[7]  1
    x[3,7]    findWorstP[1,3]  -6.2528267752148356e-02
    x[3,7]    findWorstP[2,3]  -7.7142293172789839e-02
    x[3,7]    findWorstP[3,1]  4.5945737466953712e-02
    x[3,7]    findWorstP[3,2]  4.5945737466953712e-02
    x[3,8]    allocateEach[8]  1
    x[3,8]    findWorstP[1,3]  -6.9312528267752166e-02
    x[3,8]    findWorstP[2,3]  -1.7172888548940262e-02
    x[3,8]    findWorstP[3,1]  5.2782900780488494e-02
    x[3,8]    findWorstP[3,2]  5.2782900780488494e-02
    x[3,9]    allocateEach[9]  1
    x[3,9]    findWorstP[1,3]  -1.4438298020387574e-03
    x[3,9]    findWorstP[2,3]  -9.1156949344913515e-02
    x[3,9]    findWorstP[3,1]  5.8105369452255570e-02
    x[3,9]    findWorstP[3,2]  5.8105369452255570e-02
    x[3,10]   allocateEach[10]  1
    x[3,10]   findWorstP[1,3]  -6.8494937897922978e-02
    x[3,10]   findWorstP[2,3]  -1.2349182067161783e-02
    x[3,10]   findWorstP[3,1]  3.7537779710104281e-02
    x[3,10]   findWorstP[3,2]  3.7537779710104281e-02
    x[3,11]   allocateEach[11]  1
    x[3,11]   findWorstP[1,3]  -4.2532094770900740e-03
    x[3,11]   findWorstP[2,3]  -2.8090996570357029e-02
    x[3,11]   findWorstP[3,1]  4.0461981865739148e-02
    x[3,11]   findWorstP[3,2]  4.0461981865739148e-02
    x[3,12]   allocateEach[12]  1
    x[3,12]   findWorstP[1,3]  -7.8149462477820689e-02
    x[3,12]   findWorstP[2,3]  -7.4761282044955458e-03
    x[3,12]   findWorstP[3,1]  6.1702769226453867e-02
    x[3,12]   findWorstP[3,2]  6.1702769226453867e-02
    x[3,13]   allocateEach[13]  1
    x[3,13]   findWorstP[1,3]  -1.8265316772779461e-04
    x[3,13]   findWorstP[2,3]  -2.1638826519282488e-02
    x[3,13]   findWorstP[3,1]  6.6934075720707142e-02
    x[3,13]   findWorstP[3,2]  6.6934075720707142e-02
    x[3,14]   allocateEach[14]  1
    x[3,14]   findWorstP[1,3]  -2.9763768569738721e-02
    x[3,14]   findWorstP[2,3]  -8.0571936144489126e-02
    x[3,14]   findWorstP[3,1]  6.5552618107613453e-02
    x[3,14]   findWorstP[3,2]  6.5552618107613453e-02
    x[3,15]   allocateEach[15]  1
    x[3,15]   findWorstP[1,3]  -5.6926903941829317e-02
    x[3,15]   findWorstP[2,3]  -0.0439068321448839
    x[3,15]   findWorstP[3,1]  6.6934075720707142e-02
    x[3,15]   findWorstP[3,2]  6.6934075720707142e-02
    x[3,16]   allocateEach[16]  1
    x[3,16]   findWorstP[1,3]  -2.6328149462477825e-02
    x[3,16]   findWorstP[2,3]  -1.6938488489723409e-02
    x[3,16]   findWorstP[3,1]  6.6723701464906068e-02
    x[3,16]   findWorstP[3,2]  6.6723701464906068e-02
    x[3,17]   allocateEach[17]  1
    x[3,17]   findWorstP[1,3]  -2.3005601363810323e-02
    x[3,17]   findWorstP[2,3]  -5.2493276419354036e-02
    x[3,17]   findWorstP[3,1]  0.0386177008898831
    x[3,17]   findWorstP[3,2]  0.0386177008898831
    x[3,18]   allocateEach[18]  1
    x[3,18]   findWorstP[1,3]  -8.2080854468914180e-02
    x[3,18]   findWorstP[2,3]  -7.6624145673468369e-02
    x[3,18]   findWorstP[3,1]  6.5075769794464361e-02
    x[3,18]   findWorstP[3,2]  6.5075769794464361e-02
    x[3,19]   allocateEach[19]  1
    x[3,19]   findWorstP[1,3]  -7.0660682600981115e-02
    x[3,19]   findWorstP[2,3]  -2.3106911100693329e-02
    x[3,19]   findWorstP[3,1]  4.7032671121925905e-02
    x[3,19]   findWorstP[3,2]  4.7032671121925905e-02
    MARKER    'MARKER'                 'INTEND'
RHS
    RHS1      allocateEach[1]  1
    RHS1      allocateEach[2]  1
    RHS1      allocateEach[3]  1
    RHS1      allocateEach[4]  1
    RHS1      allocateEach[5]  1
    RHS1      allocateEach[6]  1
    RHS1      allocateEach[7]  1
    RHS1      allocateEach[8]  1
    RHS1      allocateEach[9]  1
    RHS1      allocateEach[10]  1
    RHS1      allocateEach[11]  1
    RHS1      allocateEach[12]  1
    RHS1      allocateEach[13]  1
    RHS1      allocateEach[14]  1
    RHS1      allocateEach[15]  1
    RHS1      allocateEach[16]  1
    RHS1      allocateEach[17]  1
    RHS1      allocateEach[18]  1
    RHS1      allocateEach[19]  1
    RHS1      allocateAllCash  1
BOUNDS
 UP BND1      z         1
 MI BND1      cashProportion[1]
 UP BND1      cashProportion[1]  1
 MI BND1      cashProportion[2]
 UP BND1      cashProportion[2]  1
 MI BND1      cashProportion[3]
 UP BND1      cashProportion[3]  1
 BV BND1      x[1,1]  
 BV BND1      x[1,2]  
 BV BND1      x[1,3]  
 BV BND1      x[1,4]  
 BV BND1      x[1,5]  
 BV BND1      x[1,6]  
 BV BND1      x[1,7]  
 BV BND1      x[1,8]  
 BV BND1      x[1,9]  
 BV BND1      x[1,10] 
 BV BND1      x[1,11] 
 BV BND1      x[1,12] 
 BV BND1      x[1,13] 
 BV BND1      x[1,14] 
 BV BND1      x[1,15] 
 BV BND1      x[1,16] 
 BV BND1      x[1,17] 
 BV BND1      x[1,18] 
 BV BND1      x[1,19] 
 BV BND1      x[2,1]  
 BV BND1      x[2,2]  
 BV BND1      x[2,3]  
 BV BND1      x[2,4]  
 BV BND1      x[2,5]  
 BV BND1      x[2,6]  
 BV BND1      x[2,7]  
 BV BND1      x[2,8]  
 BV BND1      x[2,9]  
 BV BND1      x[2,10] 
 BV BND1      x[2,11] 
 BV BND1      x[2,12] 
 BV BND1      x[2,13] 
 BV BND1      x[2,14] 
 BV BND1      x[2,15] 
 BV BND1      x[2,16] 
 BV BND1      x[2,17] 
 BV BND1      x[2,18] 
 BV BND1      x[2,19] 
 BV BND1      x[3,1]  
 BV BND1      x[3,2]  
 BV BND1      x[3,3]  
 BV BND1      x[3,4]  
 BV BND1      x[3,5]  
 BV BND1      x[3,6]  
 BV BND1      x[3,7]  
 BV BND1      x[3,8]  
 BV BND1      x[3,9]  
 BV BND1      x[3,10] 
 BV BND1      x[3,11] 
 BV BND1      x[3,12] 
 BV BND1      x[3,13] 
 BV BND1      x[3,14] 
 BV BND1      x[3,15] 
 BV BND1      x[3,16] 
 BV BND1      x[3,17] 
 BV BND1      x[3,18] 
 BV BND1      x[3,19] 
ENDATA
